(set-logic HORN)
(declare-fun state (Int Int Int Int (Array Int Int) Int Int Int Int (Array Int Int) Bool Int Int (Array Int Int) (Array Int Int) Int Int Int Int Int (Array Int Int) (Array Int Int)) Bool)
(assert (forall ((|A_3| Int) (|K_3| Int) (|C_3| Int) (|E_3| Int) (|G_3| (Array Int Int)) (|L_0| Int) (|B_3| Int) (|D_3| Int) (|F_3| Int) (|H_3| (Array Int Int)) (|.loc.45| Bool) (|F_7| Int) (|G_7| Int) (|M_0| (Array Int Int)) (|N| (Array Int Int)) (|D| Int) (|C| Int) (|K| Int) (|J| Int) (|G| Int) (|E| (Array Int Int)) (|F| (Array Int Int)) (|.loc.56| Bool) (|.y.50| (Array Int Int)) (|.y.55| (Array Int Int)) (|.y.54| Int) (|.y.53| Int) (|.y.49| Int) (|.y.48| Int) (|.y.46| Int) (|.y.47| Int) (|.y.51| Int) (|.y.52| Int) (|.xtv.1| Int) (|.xtv.2| Int) (|.xtv.3| (Array Int Int)) (|.xtv.4| (Array Int Int)) (|.xiv.1| Int) (|.xiv.2| Int) (|.xiv.3| Int) (|.xiv.4| Int) (|.xiv.5| Int) (|.xiv.6| (Array Int Int)) (|.xiv.7| (Array Int Int))) (=> (let ((.def_49 (<= 1 (+ B_3 F_3)))) (let ((.def_53 (ite .def_49 (+ (- 1) (+ B_3 F_3)) (* (- 1) (+ (- 1) (+ B_3 F_3)))))) (let ((.def_59 (<= 0 E_3))) (let ((.def_82 (<= 0 K))) (let ((.def_85 (<= 0 J))) (let ((.def_87 (<= (ite .def_85 J (* (- 1) J)) (ite .def_82 K (* (- 1) K))))) (or (and (and (and (and (and (and (and (and (and (and (and (= (+ A_3 (+ (* (- 1) K_3) (+ E_3 (+ (* (- 1) B_3) (* (- 1) F_3))))) (- 1)) (not .loc.45)) .def_49) (<= (ite (<= 0 F_3) F_3 (* (- 1) F_3)) .def_53)) .def_59) (<= (ite .def_59 E_3 (* (- 1) E_3)) .def_53)) (= (select H_3 C) (select G_3 C))) (<= 0 C_3)) (<= 0 K_3)) (= C_3 D_3)) (= E_3 F_3)) (= K_3 L_0)) (and (or (not (= E F)) .def_87) (and .loc.45 (and (not .def_87) (and (= (select F G) (select E G)) (and .def_85 (and .def_82 (and (<= 0 C) (<= 0 D))))))))))))))) (state |A_3| |K_3| |C_3| |E_3| |G_3| |L_0| |B_3| |D_3| |F_3| |H_3| |.loc.45| |F_7| |G_7| |M_0| |N| |D| |C| |K| |J| |G| |E| |F|))))
(assert (forall ((|A_3| Int) (|K_3| Int) (|C_3| Int) (|E_3| Int) (|G_3| (Array Int Int)) (|L_0| Int) (|B_3| Int) (|D_3| Int) (|F_3| Int) (|H_3| (Array Int Int)) (|.loc.45| Bool) (|F_7| Int) (|G_7| Int) (|M_0| (Array Int Int)) (|N| (Array Int Int)) (|D| Int) (|C| Int) (|K| Int) (|J| Int) (|G| Int) (|E| (Array Int Int)) (|F| (Array Int Int)) (|.loc.56| Bool) (|.y.50| (Array Int Int)) (|.y.55| (Array Int Int)) (|.y.54| Int) (|.y.53| Int) (|.y.49| Int) (|.y.48| Int) (|.y.46| Int) (|.y.47| Int) (|.y.51| Int) (|.y.52| Int) (|.xtv.1| Int) (|.xtv.2| Int) (|.xtv.3| (Array Int Int)) (|.xtv.4| (Array Int Int)) (|.xiv.1| Int) (|.xiv.2| Int) (|.xiv.3| Int) (|.xiv.4| Int) (|.xiv.5| Int) (|.xiv.6| (Array Int Int)) (|.xiv.7| (Array Int Int))) (=> (and (state |A_3| |K_3| |C_3| |E_3| |G_3| |L_0| |B_3| |D_3| |F_3| |H_3| |.loc.45| |F_7| |G_7| |M_0| |N| |D| |C| |K| |J| |G| |E| |F|) (let ((.def_103 (= M_0 N))) (let ((.def_105 (not (= K_3 L_0)))) (let ((.def_107 (= B_3 0))) (let ((.def_108 (not .def_107))) (let ((.def_110 (not (= C_3 D_3)))) (let ((.def_112 (not (= E_3 F_3)))) (let ((.def_116 (not (= G_3 H_3)))) (let ((.def_130 (<= (ite (<= 0 K_3) K_3 (* (- 1) K_3)) (ite (<= 0 A_3) A_3 (* (- 1) A_3))))) (let ((.def_137 (not .def_130))) (let ((.def_155 (= G_7 0))) (let ((.def_160 (not (= F_7 0)))) (let ((.def_162 (not .loc.56))) (let ((.def_165 (= F_3 .y.54))) (let ((.def_168 (= D_3 .y.53))) (let ((.def_171 (= E_3 .y.49))) (let ((.def_174 (= C_3 .y.48))) (let ((.def_177 (= A_3 .y.46))) (let ((.def_182 (= (+ K_3 (* (- 1) .y.47)) (- 1)))) (let ((.def_188 (= (+ L_0 (* (- 1) .y.51)) (- 1)))) (let ((.def_193 (= (+ B_3 (* (- 1) .y.52)) 1))) (and (not .loc.45) (or (or (or (and (or (or (and (or (and (and (or (not .def_103) .def_105) .def_108) (or (or .def_105 (or (or .def_103 .def_110) .def_112)) .def_116)) (and .def_107 (or (not (= K_3 0)) (not (= H_3 M_0))))) .def_130) (and (or (not (= L_0 0)) (not (= G_3 M_0))) (and .def_108 .def_137))) (and .def_137 (and .def_107 .def_116))) .loc.56) (and (and (and (or .def_116 (or .def_105 (or .def_112 (or .def_110 (and (= F_7 G_7) (= .y.50 .y.55)))))) (and (and (and (and (and (and (and (and (and (not .def_155) (and .def_108 .def_130)) .def_160) .def_162) .def_165) .def_168) .def_171) .def_174) .def_177) .def_182)) .def_188) .def_193)) (and (or .def_107 .def_155) (and (= L_0 .y.51) (and (= B_3 .y.52) (and (= H_3 .y.55) (and .def_182 (and .def_177 (and .def_174 (and .def_171 (and .def_168 (and .def_165 (and .def_162 (and .def_130 .def_160))))))))))))) (and (or .def_137 .def_155) (and (= K_3 .y.47) (and (= G_3 .y.50) (and .def_193 (and .def_188 (and .def_177 (and .def_174 (and .def_171 (and .def_168 (and .def_165 (and .def_162 (and .def_108 .def_160))))))))))))))))))))))))))))))))))) (state |.y.46| |.y.47| |.y.48| |.y.49| |.y.50| |.y.51| |.y.52| |.y.53| |.y.54| |.y.55| |.loc.56| |.xtv.1| |.xtv.2| |.xtv.3| |.xtv.4| |.xiv.1| |.xiv.2| |.xiv.3| |.xiv.4| |.xiv.5| |.xiv.6| |.xiv.7|))))
(assert (forall ((|A_3| Int) (|K_3| Int) (|C_3| Int) (|E_3| Int) (|G_3| (Array Int Int)) (|L_0| Int) (|B_3| Int) (|D_3| Int) (|F_3| Int) (|H_3| (Array Int Int)) (|.loc.45| Bool) (|F_7| Int) (|G_7| Int) (|M_0| (Array Int Int)) (|N| (Array Int Int)) (|D| Int) (|C| Int) (|K| Int) (|J| Int) (|G| Int) (|E| (Array Int Int)) (|F| (Array Int Int)) (|.loc.56| Bool) (|.y.50| (Array Int Int)) (|.y.55| (Array Int Int)) (|.y.54| Int) (|.y.53| Int) (|.y.49| Int) (|.y.48| Int) (|.y.46| Int) (|.y.47| Int) (|.y.51| Int) (|.y.52| Int) (|.xtv.1| Int) (|.xtv.2| Int) (|.xtv.3| (Array Int Int)) (|.xtv.4| (Array Int Int)) (|.xiv.1| Int) (|.xiv.2| Int) (|.xiv.3| Int) (|.xiv.4| Int) (|.xiv.5| Int) (|.xiv.6| (Array Int Int)) (|.xiv.7| (Array Int Int))) (=> (state |A_3| |K_3| |C_3| |E_3| |G_3| |L_0| |B_3| |D_3| |F_3| |H_3| |.loc.45| |F_7| |G_7| |M_0| |N| |D| |C| |K| |J| |G| |E| |F|) (not .loc.45))))
(check-sat)
